notebooks/security-sp.lp
\ Model security
\ LP format - for model browsing. Use MPS format to capture full model detail.
Minimize
  patterns[0] + patterns[1] + patterns[2] + patterns[3] + patterns[4]
   + patterns[5] + patterns[6] + patterns[7] + patterns[8] + patterns[9]
   + patterns[10] + patterns[11] + patterns[12] + patterns[13]
   + patterns[14] + patterns[15] + patterns[16] + patterns[17]
   + patterns[18] + patterns[19] + patterns[20] + patterns[21]
   + patterns[22] + patterns[23] + patterns[24] + patterns[25]
   + patterns[26] + patterns[27] + patterns[28] + patterns[29]
   + patterns[30] + patterns[31] + patterns[32] + patterns[33]
   + patterns[34] + patterns[35] + patterns[36] + patterns[37]
   + patterns[38] + patterns[39] + patterns[40] + patterns[41]
   + patterns[42] + patterns[43] + patterns[44] + patterns[45]
   + patterns[46] + patterns[47] + patterns[48] + patterns[49]
   + patterns[50] + patterns[51] + patterns[52] + patterns[53]
   + patterns[54] + patterns[55] + patterns[56] + patterns[57]
   + patterns[58] + patterns[59] + patterns[60] + patterns[61]
   + patterns[62] + patterns[63] + patterns[64] + patterns[65]
   + patterns[66] + patterns[67] + patterns[68] + patterns[69]
   + patterns[70] + patterns[71] + patterns[72] + patterns[73]
   + patterns[74] + patterns[75] + patterns[76] + patterns[77]
   + patterns[78] + patterns[79] + patterns[80] + patterns[81]
   + patterns[82] + patterns[83] + patterns[84] + patterns[85]
   + patterns[86]
Subject To
 cover[0]: patterns[59] + patterns[60] + patterns[61] + patterns[62]
   + patterns[63] + patterns[64] + patterns[65] + patterns[66]
   + patterns[67] + patterns[68] + patterns[69] + patterns[70]
   + patterns[71] + patterns[72] + patterns[73] + patterns[74]
   + patterns[75] + patterns[76] + patterns[77] + patterns[78]
   + patterns[79] + patterns[80] + patterns[81] + patterns[82]
   + patterns[83] + patterns[84] + patterns[85] + patterns[86] = 1
 cover[1]: patterns[40] + patterns[41] + patterns[42] + patterns[43]
   + patterns[44] + patterns[45] + patterns[46] + patterns[47]
   + patterns[48] + patterns[49] + patterns[50] + patterns[51]
   + patterns[52] + patterns[53] + patterns[54] + patterns[55]
   + patterns[56] + patterns[57] + patterns[58] = 1
 cover[2]: patterns[27] + patterns[28] + patterns[29] + patterns[30]
   + patterns[31] + patterns[32] + patterns[33] + patterns[34]
   + patterns[35] + patterns[36] + patterns[37] + patterns[38]
   + patterns[39] = 1
 cover[3]: patterns[18] + patterns[19] + patterns[20] + patterns[21]
   + patterns[22] + patterns[23] + patterns[24] + patterns[25]
   + patterns[26] + patterns[78] + patterns[79] + patterns[80]
   + patterns[81] + patterns[82] + patterns[83] + patterns[84]
   + patterns[85] + patterns[86] = 1
 cover[4]: patterns[12] + patterns[13] + patterns[14] + patterns[15]
   + patterns[16] + patterns[17] + patterns[53] + patterns[54]
   + patterns[55] + patterns[56] + patterns[57] + patterns[58]
   + patterns[72] + patterns[73] + patterns[74] + patterns[75]
   + patterns[76] + patterns[77] = 1
 cover[5]: patterns[8] + patterns[9] + patterns[10] + patterns[11]
   + patterns[36] + patterns[37] + patterns[38] + patterns[39]
   + patterns[49] + patterns[50] + patterns[51] + patterns[52]
   + patterns[68] + patterns[69] + patterns[70] + patterns[71] = 1
 cover[6]: patterns[5] + patterns[6] + patterns[7] + patterns[24]
   + patterns[25] + patterns[26] + patterns[33] + patterns[34]
   + patterns[35] + patterns[46] + patterns[47] + patterns[48]
   + patterns[65] + patterns[66] + patterns[67] + patterns[84]
   + patterns[85] + patterns[86] = 1
 cover[7]: patterns[3] + patterns[4] + patterns[16] + patterns[17]
   + patterns[22] + patterns[23] + patterns[31] + patterns[32]
   + patterns[44] + patterns[45] + patterns[57] + patterns[58]
   + patterns[63] + patterns[64] + patterns[76] + patterns[77]
   + patterns[82] + patterns[83] = 1
 cover[8]: patterns[2] + patterns[11] + patterns[15] + patterns[21]
   + patterns[30] + patterns[39] + patterns[43] + patterns[52]
   + patterns[56] + patterns[62] + patterns[71] + patterns[75]
   + patterns[81] = 1
 cover[9]: patterns[1] + patterns[7] + patterns[10] + patterns[14]
   + patterns[20] + patterns[26] + patterns[29] + patterns[35]
   + patterns[38] + patterns[42] + patterns[48] + patterns[51]
   + patterns[55] + patterns[61] + patterns[67] + patterns[70]
   + patterns[74] + patterns[80] + patterns[86] = 1
 cover[10]: patterns[0] + patterns[4] + patterns[6] + patterns[9]
   + patterns[13] + patterns[17] + patterns[19] + patterns[23]
   + patterns[25] + patterns[28] + patterns[32] + patterns[34]
   + patterns[37] + patterns[41] + patterns[45] + patterns[47]
   + patterns[50] + patterns[54] + patterns[58] + patterns[60]
   + patterns[64] + patterns[66] + patterns[69] + patterns[73]
   + patterns[77] + patterns[79] + patterns[83] + patterns[85] = 1
Bounds
Binaries
 patterns[0] patterns[1] patterns[2] patterns[3] patterns[4] patterns[5]
 patterns[6] patterns[7] patterns[8] patterns[9] patterns[10] patterns[11]
 patterns[12] patterns[13] patterns[14] patterns[15] patterns[16]
 patterns[17] patterns[18] patterns[19] patterns[20] patterns[21]
 patterns[22] patterns[23] patterns[24] patterns[25] patterns[26]
 patterns[27] patterns[28] patterns[29] patterns[30] patterns[31]
 patterns[32] patterns[33] patterns[34] patterns[35] patterns[36]
 patterns[37] patterns[38] patterns[39] patterns[40] patterns[41]
 patterns[42] patterns[43] patterns[44] patterns[45] patterns[46]
 patterns[47] patterns[48] patterns[49] patterns[50] patterns[51]
 patterns[52] patterns[53] patterns[54] patterns[55] patterns[56]
 patterns[57] patterns[58] patterns[59] patterns[60] patterns[61]
 patterns[62] patterns[63] patterns[64] patterns[65] patterns[66]
 patterns[67] patterns[68] patterns[69] patterns[70] patterns[71]
 patterns[72] patterns[73] patterns[74] patterns[75] patterns[76]
 patterns[77] patterns[78] patterns[79] patterns[80] patterns[81]
 patterns[82] patterns[83] patterns[84] patterns[85] patterns[86]
End
