notebooks/security-sp.mps
NAME security
ROWS
 N  OBJ
 E  cover[0]
 E  cover[1]
 E  cover[2]
 E  cover[3]
 E  cover[4]
 E  cover[5]
 E  cover[6]
 E  cover[7]
 E  cover[8]
 E  cover[9]
 E  cover[10]
COLUMNS
    MARKER    'MARKER'                 'INTORG'
    patterns[0]  OBJ       1
    patterns[0]  cover[10]  1
    patterns[1]  OBJ       1
    patterns[1]  cover[9]  1
    patterns[2]  OBJ       1
    patterns[2]  cover[8]  1
    patterns[3]  OBJ       1
    patterns[3]  cover[7]  1
    patterns[4]  OBJ       1
    patterns[4]  cover[7]  1
    patterns[4]  cover[10]  1
    patterns[5]  OBJ       1
    patterns[5]  cover[6]  1
    patterns[6]  OBJ       1
    patterns[6]  cover[6]  1
    patterns[6]  cover[10]  1
    patterns[7]  OBJ       1
    patterns[7]  cover[6]  1
    patterns[7]  cover[9]  1
    patterns[8]  OBJ       1
    patterns[8]  cover[5]  1
    patterns[9]  OBJ       1
    patterns[9]  cover[5]  1
    patterns[9]  cover[10]  1
    patterns[10]  OBJ       1
    patterns[10]  cover[5]  1
    patterns[10]  cover[9]  1
    patterns[11]  OBJ       1
    patterns[11]  cover[5]  1
    patterns[11]  cover[8]  1
    patterns[12]  OBJ       1
    patterns[12]  cover[4]  1
    patterns[13]  OBJ       1
    patterns[13]  cover[4]  1
    patterns[13]  cover[10]  1
    patterns[14]  OBJ       1
    patterns[14]  cover[4]  1
    patterns[14]  cover[9]  1
    patterns[15]  OBJ       1
    patterns[15]  cover[4]  1
    patterns[15]  cover[8]  1
    patterns[16]  OBJ       1
    patterns[16]  cover[4]  1
    patterns[16]  cover[7]  1
    patterns[17]  OBJ       1
    patterns[17]  cover[4]  1
    patterns[17]  cover[7]  1
    patterns[17]  cover[10]  1
    patterns[18]  OBJ       1
    patterns[18]  cover[3]  1
    patterns[19]  OBJ       1
    patterns[19]  cover[3]  1
    patterns[19]  cover[10]  1
    patterns[20]  OBJ       1
    patterns[20]  cover[3]  1
    patterns[20]  cover[9]  1
    patterns[21]  OBJ       1
    patterns[21]  cover[3]  1
    patterns[21]  cover[8]  1
    patterns[22]  OBJ       1
    patterns[22]  cover[3]  1
    patterns[22]  cover[7]  1
    patterns[23]  OBJ       1
    patterns[23]  cover[3]  1
    patterns[23]  cover[7]  1
    patterns[23]  cover[10]  1
    patterns[24]  OBJ       1
    patterns[24]  cover[3]  1
    patterns[24]  cover[6]  1
    patterns[25]  OBJ       1
    patterns[25]  cover[3]  1
    patterns[25]  cover[6]  1
    patterns[25]  cover[10]  1
    patterns[26]  OBJ       1
    patterns[26]  cover[3]  1
    patterns[26]  cover[6]  1
    patterns[26]  cover[9]  1
    patterns[27]  OBJ       1
    patterns[27]  cover[2]  1
    patterns[28]  OBJ       1
    patterns[28]  cover[2]  1
    patterns[28]  cover[10]  1
    patterns[29]  OBJ       1
    patterns[29]  cover[2]  1
    patterns[29]  cover[9]  1
    patterns[30]  OBJ       1
    patterns[30]  cover[2]  1
    patterns[30]  cover[8]  1
    patterns[31]  OBJ       1
    patterns[31]  cover[2]  1
    patterns[31]  cover[7]  1
    patterns[32]  OBJ       1
    patterns[32]  cover[2]  1
    patterns[32]  cover[7]  1
    patterns[32]  cover[10]  1
    patterns[33]  OBJ       1
    patterns[33]  cover[2]  1
    patterns[33]  cover[6]  1
    patterns[34]  OBJ       1
    patterns[34]  cover[2]  1
    patterns[34]  cover[6]  1
    patterns[34]  cover[10]  1
    patterns[35]  OBJ       1
    patterns[35]  cover[2]  1
    patterns[35]  cover[6]  1
    patterns[35]  cover[9]  1
    patterns[36]  OBJ       1
    patterns[36]  cover[2]  1
    patterns[36]  cover[5]  1
    patterns[37]  OBJ       1
    patterns[37]  cover[2]  1
    patterns[37]  cover[5]  1
    patterns[37]  cover[10]  1
    patterns[38]  OBJ       1
    patterns[38]  cover[2]  1
    patterns[38]  cover[5]  1
    patterns[38]  cover[9]  1
    patterns[39]  OBJ       1
    patterns[39]  cover[2]  1
    patterns[39]  cover[5]  1
    patterns[39]  cover[8]  1
    patterns[40]  OBJ       1
    patterns[40]  cover[1]  1
    patterns[41]  OBJ       1
    patterns[41]  cover[1]  1
    patterns[41]  cover[10]  1
    patterns[42]  OBJ       1
    patterns[42]  cover[1]  1
    patterns[42]  cover[9]  1
    patterns[43]  OBJ       1
    patterns[43]  cover[1]  1
    patterns[43]  cover[8]  1
    patterns[44]  OBJ       1
    patterns[44]  cover[1]  1
    patterns[44]  cover[7]  1
    patterns[45]  OBJ       1
    patterns[45]  cover[1]  1
    patterns[45]  cover[7]  1
    patterns[45]  cover[10]  1
    patterns[46]  OBJ       1
    patterns[46]  cover[1]  1
    patterns[46]  cover[6]  1
    patterns[47]  OBJ       1
    patterns[47]  cover[1]  1
    patterns[47]  cover[6]  1
    patterns[47]  cover[10]  1
    patterns[48]  OBJ       1
    patterns[48]  cover[1]  1
    patterns[48]  cover[6]  1
    patterns[48]  cover[9]  1
    patterns[49]  OBJ       1
    patterns[49]  cover[1]  1
    patterns[49]  cover[5]  1
    patterns[50]  OBJ       1
    patterns[50]  cover[1]  1
    patterns[50]  cover[5]  1
    patterns[50]  cover[10]  1
    patterns[51]  OBJ       1
    patterns[51]  cover[1]  1
    patterns[51]  cover[5]  1
    patterns[51]  cover[9]  1
    patterns[52]  OBJ       1
    patterns[52]  cover[1]  1
    patterns[52]  cover[5]  1
    patterns[52]  cover[8]  1
    patterns[53]  OBJ       1
    patterns[53]  cover[1]  1
    patterns[53]  cover[4]  1
    patterns[54]  OBJ       1
    patterns[54]  cover[1]  1
    patterns[54]  cover[4]  1
    patterns[54]  cover[10]  1
    patterns[55]  OBJ       1
    patterns[55]  cover[1]  1
    patterns[55]  cover[4]  1
    patterns[55]  cover[9]  1
    patterns[56]  OBJ       1
    patterns[56]  cover[1]  1
    patterns[56]  cover[4]  1
    patterns[56]  cover[8]  1
    patterns[57]  OBJ       1
    patterns[57]  cover[1]  1
    patterns[57]  cover[4]  1
    patterns[57]  cover[7]  1
    patterns[58]  OBJ       1
    patterns[58]  cover[1]  1
    patterns[58]  cover[4]  1
    patterns[58]  cover[7]  1
    patterns[58]  cover[10]  1
    patterns[59]  OBJ       1
    patterns[59]  cover[0]  1
    patterns[60]  OBJ       1
    patterns[60]  cover[0]  1
    patterns[60]  cover[10]  1
    patterns[61]  OBJ       1
    patterns[61]  cover[0]  1
    patterns[61]  cover[9]  1
    patterns[62]  OBJ       1
    patterns[62]  cover[0]  1
    patterns[62]  cover[8]  1
    patterns[63]  OBJ       1
    patterns[63]  cover[0]  1
    patterns[63]  cover[7]  1
    patterns[64]  OBJ       1
    patterns[64]  cover[0]  1
    patterns[64]  cover[7]  1
    patterns[64]  cover[10]  1
    patterns[65]  OBJ       1
    patterns[65]  cover[0]  1
    patterns[65]  cover[6]  1
    patterns[66]  OBJ       1
    patterns[66]  cover[0]  1
    patterns[66]  cover[6]  1
    patterns[66]  cover[10]  1
    patterns[67]  OBJ       1
    patterns[67]  cover[0]  1
    patterns[67]  cover[6]  1
    patterns[67]  cover[9]  1
    patterns[68]  OBJ       1
    patterns[68]  cover[0]  1
    patterns[68]  cover[5]  1
    patterns[69]  OBJ       1
    patterns[69]  cover[0]  1
    patterns[69]  cover[5]  1
    patterns[69]  cover[10]  1
    patterns[70]  OBJ       1
    patterns[70]  cover[0]  1
    patterns[70]  cover[5]  1
    patterns[70]  cover[9]  1
    patterns[71]  OBJ       1
    patterns[71]  cover[0]  1
    patterns[71]  cover[5]  1
    patterns[71]  cover[8]  1
    patterns[72]  OBJ       1
    patterns[72]  cover[0]  1
    patterns[72]  cover[4]  1
    patterns[73]  OBJ       1
    patterns[73]  cover[0]  1
    patterns[73]  cover[4]  1
    patterns[73]  cover[10]  1
    patterns[74]  OBJ       1
    patterns[74]  cover[0]  1
    patterns[74]  cover[4]  1
    patterns[74]  cover[9]  1
    patterns[75]  OBJ       1
    patterns[75]  cover[0]  1
    patterns[75]  cover[4]  1
    patterns[75]  cover[8]  1
    patterns[76]  OBJ       1
    patterns[76]  cover[0]  1
    patterns[76]  cover[4]  1
    patterns[76]  cover[7]  1
    patterns[77]  OBJ       1
    patterns[77]  cover[0]  1
    patterns[77]  cover[4]  1
    patterns[77]  cover[7]  1
    patterns[77]  cover[10]  1
    patterns[78]  OBJ       1
    patterns[78]  cover[0]  1
    patterns[78]  cover[3]  1
    patterns[79]  OBJ       1
    patterns[79]  cover[0]  1
    patterns[79]  cover[3]  1
    patterns[79]  cover[10]  1
    patterns[80]  OBJ       1
    patterns[80]  cover[0]  1
    patterns[80]  cover[3]  1
    patterns[80]  cover[9]  1
    patterns[81]  OBJ       1
    patterns[81]  cover[0]  1
    patterns[81]  cover[3]  1
    patterns[81]  cover[8]  1
    patterns[82]  OBJ       1
    patterns[82]  cover[0]  1
    patterns[82]  cover[3]  1
    patterns[82]  cover[7]  1
    patterns[83]  OBJ       1
    patterns[83]  cover[0]  1
    patterns[83]  cover[3]  1
    patterns[83]  cover[7]  1
    patterns[83]  cover[10]  1
    patterns[84]  OBJ       1
    patterns[84]  cover[0]  1
    patterns[84]  cover[3]  1
    patterns[84]  cover[6]  1
    patterns[85]  OBJ       1
    patterns[85]  cover[0]  1
    patterns[85]  cover[3]  1
    patterns[85]  cover[6]  1
    patterns[85]  cover[10]  1
    patterns[86]  OBJ       1
    patterns[86]  cover[0]  1
    patterns[86]  cover[3]  1
    patterns[86]  cover[6]  1
    patterns[86]  cover[9]  1
    MARKER    'MARKER'                 'INTEND'
RHS
    RHS1      cover[0]  1
    RHS1      cover[1]  1
    RHS1      cover[2]  1
    RHS1      cover[3]  1
    RHS1      cover[4]  1
    RHS1      cover[5]  1
    RHS1      cover[6]  1
    RHS1      cover[7]  1
    RHS1      cover[8]  1
    RHS1      cover[9]  1
    RHS1      cover[10]  1
BOUNDS
 BV BND1      patterns[0]
 BV BND1      patterns[1]
 BV BND1      patterns[2]
 BV BND1      patterns[3]
 BV BND1      patterns[4]
 BV BND1      patterns[5]
 BV BND1      patterns[6]
 BV BND1      patterns[7]
 BV BND1      patterns[8]
 BV BND1      patterns[9]
 BV BND1      patterns[10]
 BV BND1      patterns[11]
 BV BND1      patterns[12]
 BV BND1      patterns[13]
 BV BND1      patterns[14]
 BV BND1      patterns[15]
 BV BND1      patterns[16]
 BV BND1      patterns[17]
 BV BND1      patterns[18]
 BV BND1      patterns[19]
 BV BND1      patterns[20]
 BV BND1      patterns[21]
 BV BND1      patterns[22]
 BV BND1      patterns[23]
 BV BND1      patterns[24]
 BV BND1      patterns[25]
 BV BND1      patterns[26]
 BV BND1      patterns[27]
 BV BND1      patterns[28]
 BV BND1      patterns[29]
 BV BND1      patterns[30]
 BV BND1      patterns[31]
 BV BND1      patterns[32]
 BV BND1      patterns[33]
 BV BND1      patterns[34]
 BV BND1      patterns[35]
 BV BND1      patterns[36]
 BV BND1      patterns[37]
 BV BND1      patterns[38]
 BV BND1      patterns[39]
 BV BND1      patterns[40]
 BV BND1      patterns[41]
 BV BND1      patterns[42]
 BV BND1      patterns[43]
 BV BND1      patterns[44]
 BV BND1      patterns[45]
 BV BND1      patterns[46]
 BV BND1      patterns[47]
 BV BND1      patterns[48]
 BV BND1      patterns[49]
 BV BND1      patterns[50]
 BV BND1      patterns[51]
 BV BND1      patterns[52]
 BV BND1      patterns[53]
 BV BND1      patterns[54]
 BV BND1      patterns[55]
 BV BND1      patterns[56]
 BV BND1      patterns[57]
 BV BND1      patterns[58]
 BV BND1      patterns[59]
 BV BND1      patterns[60]
 BV BND1      patterns[61]
 BV BND1      patterns[62]
 BV BND1      patterns[63]
 BV BND1      patterns[64]
 BV BND1      patterns[65]
 BV BND1      patterns[66]
 BV BND1      patterns[67]
 BV BND1      patterns[68]
 BV BND1      patterns[69]
 BV BND1      patterns[70]
 BV BND1      patterns[71]
 BV BND1      patterns[72]
 BV BND1      patterns[73]
 BV BND1      patterns[74]
 BV BND1      patterns[75]
 BV BND1      patterns[76]
 BV BND1      patterns[77]
 BV BND1      patterns[78]
 BV BND1      patterns[79]
 BV BND1      patterns[80]
 BV BND1      patterns[81]
 BV BND1      patterns[82]
 BV BND1      patterns[83]
 BV BND1      patterns[84]
 BV BND1      patterns[85]
 BV BND1      patterns[86]
ENDATA
